predicate array_int_element2d_nonshifted_flat(var int: idx1,var int: idx2,array [int] of var int: x,var int: c,int: numRows,int: offset1,int: offset2);
predicate fzn_all_different_int(array [int] of var int: x);
array [1..289] of int: X_INTRODUCED_18_ = [0,633,257,91,412,150,80,134,259,505,353,324,70,211,268,246,121,633,0,390,661,227,488,572,530,555,289,282,638,567,466,420,745,518,257,390,0,228,169,112,196,154,372,262,110,437,191,74,53,472,142,91,661,228,0,383,120,77,105,175,476,324,240,27,182,239,237,84,412,227,169,383,0,267,351,309,338,196,61,421,346,243,199,528,297,150,488,112,120,267,0,63,34,264,360,208,329,83,105,123,364,35,80,572,196,77,351,63,0,29,232,444,292,297,47,150,207,332,29,134,530,154,105,309,34,29,0,249,402,250,314,68,108,165,349,36,259,555,372,175,338,264,232,249,0,495,352,95,189,326,383,202,236,505,289,262,476,196,360,444,402,495,0,154,578,439,336,240,685,390,353,282,110,324,61,208,292,250,352,154,0,435,287,184,140,542,238,324,638,437,240,421,329,297,314,95,578,435,0,254,391,448,157,301,70,567,191,27,346,83,47,68,189,439,287,254,0,145,202,289,55,211,466,74,182,243,105,150,108,326,336,184,391,145,0,57,426,96,268,420,53,239,199,123,207,165,383,240,140,448,202,57,0,483,153,246,745,472,237,528,364,332,349,202,685,542,157,289,426,483,0,336,121,518,142,84,297,35,29,36,236,390,238,301,55,96,153,336,0];
var 1..17: X_INTRODUCED_0_;
var 1..17: X_INTRODUCED_1_;
var 1..17: X_INTRODUCED_2_;
var 1..17: X_INTRODUCED_3_;
var 1..17: X_INTRODUCED_4_;
var 1..17: X_INTRODUCED_5_;
var 1..17: X_INTRODUCED_6_;
var 1..17: X_INTRODUCED_7_;
var 1..17: X_INTRODUCED_8_;
var 1..17: X_INTRODUCED_9_;
var 1..17: X_INTRODUCED_10_;
var 1..17: X_INTRODUCED_11_;
var 1..17: X_INTRODUCED_12_;
var 1..17: X_INTRODUCED_13_;
var 1..17: X_INTRODUCED_14_;
var 1..17: X_INTRODUCED_15_;
var 1..17: X_INTRODUCED_16_;
var 659..12386: objective:: is_defined_var;
var {27,29,34,35,36,47,53,55,57,61,63,68,70,74,77,80,83,84,91,95,96,105,108,110,112,120,121,123,134,140,142,145,150,153,154,157,165,169,175,182,184,189,191,196,199,202,207,208,211,227,228,232,236,237,238,239,240,243,246,249,250,254,257,259,262,264,267,268,282,287,289,292,297,301,309,314,324,326,329,332,336,338,346,349,351,352,353,360,364,372,383,390,391,402,412,420,421,426,435,437,439,444,448,466,472,476,483,488,495,505,518,528,530,542,555,567,572,578,633,638,661,685,745}: X_INTRODUCED_17_ ::var_is_introduced :: is_defined_var;
var {27,29,34,35,36,47,53,55,57,61,63,68,70,74,77,80,83,84,91,95,96,105,108,110,112,120,121,123,134,140,142,145,150,153,154,157,165,169,175,182,184,189,191,196,199,202,207,208,211,227,228,232,236,237,238,239,240,243,246,249,250,254,257,259,262,264,267,268,282,287,289,292,297,301,309,314,324,326,329,332,336,338,346,349,351,352,353,360,364,372,383,390,391,402,412,420,421,426,435,437,439,444,448,466,472,476,483,488,495,505,518,528,530,542,555,567,572,578,633,638,661,685,745}: X_INTRODUCED_19_ ::var_is_introduced :: is_defined_var;
var {27,29,34,35,36,47,53,55,57,61,63,68,70,74,77,80,83,84,91,95,96,105,108,110,112,120,121,123,134,140,142,145,150,153,154,157,165,169,175,182,184,189,191,196,199,202,207,208,211,227,228,232,236,237,238,239,240,243,246,249,250,254,257,259,262,264,267,268,282,287,289,292,297,301,309,314,324,326,329,332,336,338,346,349,351,352,353,360,364,372,383,390,391,402,412,420,421,426,435,437,439,444,448,466,472,476,483,488,495,505,518,528,530,542,555,567,572,578,633,638,661,685,745}: X_INTRODUCED_20_ ::var_is_introduced :: is_defined_var;
var {27,29,34,35,36,47,53,55,57,61,63,68,70,74,77,80,83,84,91,95,96,105,108,110,112,120,121,123,134,140,142,145,150,153,154,157,165,169,175,182,184,189,191,196,199,202,207,208,211,227,228,232,236,237,238,239,240,243,246,249,250,254,257,259,262,264,267,268,282,287,289,292,297,301,309,314,324,326,329,332,336,338,346,349,351,352,353,360,364,372,383,390,391,402,412,420,421,426,435,437,439,444,448,466,472,476,483,488,495,505,518,528,530,542,555,567,572,578,633,638,661,685,745}: X_INTRODUCED_21_ ::var_is_introduced :: is_defined_var;
var {27,29,34,35,36,47,53,55,57,61,63,68,70,74,77,80,83,84,91,95,96,105,108,110,112,120,121,123,134,140,142,145,150,153,154,157,165,169,175,182,184,189,191,196,199,202,207,208,211,227,228,232,236,237,238,239,240,243,246,249,250,254,257,259,262,264,267,268,282,287,289,292,297,301,309,314,324,326,329,332,336,338,346,349,351,352,353,360,364,372,383,390,391,402,412,420,421,426,435,437,439,444,448,466,472,476,483,488,495,505,518,528,530,542,555,567,572,578,633,638,661,685,745}: X_INTRODUCED_22_ ::var_is_introduced :: is_defined_var;
var {27,29,34,35,36,47,53,55,57,61,63,68,70,74,77,80,83,84,91,95,96,105,108,110,112,120,121,123,134,140,142,145,150,153,154,157,165,169,175,182,184,189,191,196,199,202,207,208,211,227,228,232,236,237,238,239,240,243,246,249,250,254,257,259,262,264,267,268,282,287,289,292,297,301,309,314,324,326,329,332,336,338,346,349,351,352,353,360,364,372,383,390,391,402,412,420,421,426,435,437,439,444,448,466,472,476,483,488,495,505,518,528,530,542,555,567,572,578,633,638,661,685,745}: X_INTRODUCED_23_ ::var_is_introduced :: is_defined_var;
var {27,29,34,35,36,47,53,55,57,61,63,68,70,74,77,80,83,84,91,95,96,105,108,110,112,120,121,123,134,140,142,145,150,153,154,157,165,169,175,182,184,189,191,196,199,202,207,208,211,227,228,232,236,237,238,239,240,243,246,249,250,254,257,259,262,264,267,268,282,287,289,292,297,301,309,314,324,326,329,332,336,338,346,349,351,352,353,360,364,372,383,390,391,402,412,420,421,426,435,437,439,444,448,466,472,476,483,488,495,505,518,528,530,542,555,567,572,578,633,638,661,685,745}: X_INTRODUCED_24_ ::var_is_introduced :: is_defined_var;
var {27,29,34,35,36,47,53,55,57,61,63,68,70,74,77,80,83,84,91,95,96,105,108,110,112,120,121,123,134,140,142,145,150,153,154,157,165,169,175,182,184,189,191,196,199,202,207,208,211,227,228,232,236,237,238,239,240,243,246,249,250,254,257,259,262,264,267,268,282,287,289,292,297,301,309,314,324,326,329,332,336,338,346,349,351,352,353,360,364,372,383,390,391,402,412,420,421,426,435,437,439,444,448,466,472,476,483,488,495,505,518,528,530,542,555,567,572,578,633,638,661,685,745}: X_INTRODUCED_25_ ::var_is_introduced :: is_defined_var;
var {27,29,34,35,36,47,53,55,57,61,63,68,70,74,77,80,83,84,91,95,96,105,108,110,112,120,121,123,134,140,142,145,150,153,154,157,165,169,175,182,184,189,191,196,199,202,207,208,211,227,228,232,236,237,238,239,240,243,246,249,250,254,257,259,262,264,267,268,282,287,289,292,297,301,309,314,324,326,329,332,336,338,346,349,351,352,353,360,364,372,383,390,391,402,412,420,421,426,435,437,439,444,448,466,472,476,483,488,495,505,518,528,530,542,555,567,572,578,633,638,661,685,745}: X_INTRODUCED_26_ ::var_is_introduced :: is_defined_var;
var {27,29,34,35,36,47,53,55,57,61,63,68,70,74,77,80,83,84,91,95,96,105,108,110,112,120,121,123,134,140,142,145,150,153,154,157,165,169,175,182,184,189,191,196,199,202,207,208,211,227,228,232,236,237,238,239,240,243,246,249,250,254,257,259,262,264,267,268,282,287,289,292,297,301,309,314,324,326,329,332,336,338,346,349,351,352,353,360,364,372,383,390,391,402,412,420,421,426,435,437,439,444,448,466,472,476,483,488,495,505,518,528,530,542,555,567,572,578,633,638,661,685,745}: X_INTRODUCED_27_ ::var_is_introduced :: is_defined_var;
var {27,29,34,35,36,47,53,55,57,61,63,68,70,74,77,80,83,84,91,95,96,105,108,110,112,120,121,123,134,140,142,145,150,153,154,157,165,169,175,182,184,189,191,196,199,202,207,208,211,227,228,232,236,237,238,239,240,243,246,249,250,254,257,259,262,264,267,268,282,287,289,292,297,301,309,314,324,326,329,332,336,338,346,349,351,352,353,360,364,372,383,390,391,402,412,420,421,426,435,437,439,444,448,466,472,476,483,488,495,505,518,528,530,542,555,567,572,578,633,638,661,685,745}: X_INTRODUCED_28_ ::var_is_introduced :: is_defined_var;
var {27,29,34,35,36,47,53,55,57,61,63,68,70,74,77,80,83,84,91,95,96,105,108,110,112,120,121,123,134,140,142,145,150,153,154,157,165,169,175,182,184,189,191,196,199,202,207,208,211,227,228,232,236,237,238,239,240,243,246,249,250,254,257,259,262,264,267,268,282,287,289,292,297,301,309,314,324,326,329,332,336,338,346,349,351,352,353,360,364,372,383,390,391,402,412,420,421,426,435,437,439,444,448,466,472,476,483,488,495,505,518,528,530,542,555,567,572,578,633,638,661,685,745}: X_INTRODUCED_29_ ::var_is_introduced :: is_defined_var;
var {27,29,34,35,36,47,53,55,57,61,63,68,70,74,77,80,83,84,91,95,96,105,108,110,112,120,121,123,134,140,142,145,150,153,154,157,165,169,175,182,184,189,191,196,199,202,207,208,211,227,228,232,236,237,238,239,240,243,246,249,250,254,257,259,262,264,267,268,282,287,289,292,297,301,309,314,324,326,329,332,336,338,346,349,351,352,353,360,364,372,383,390,391,402,412,420,421,426,435,437,439,444,448,466,472,476,483,488,495,505,518,528,530,542,555,567,572,578,633,638,661,685,745}: X_INTRODUCED_30_ ::var_is_introduced :: is_defined_var;
var {27,29,34,35,36,47,53,55,57,61,63,68,70,74,77,80,83,84,91,95,96,105,108,110,112,120,121,123,134,140,142,145,150,153,154,157,165,169,175,182,184,189,191,196,199,202,207,208,211,227,228,232,236,237,238,239,240,243,246,249,250,254,257,259,262,264,267,268,282,287,289,292,297,301,309,314,324,326,329,332,336,338,346,349,351,352,353,360,364,372,383,390,391,402,412,420,421,426,435,437,439,444,448,466,472,476,483,488,495,505,518,528,530,542,555,567,572,578,633,638,661,685,745}: X_INTRODUCED_31_ ::var_is_introduced :: is_defined_var;
var {27,29,34,35,36,47,53,55,57,61,63,68,70,74,77,80,83,84,91,95,96,105,108,110,112,120,121,123,134,140,142,145,150,153,154,157,165,169,175,182,184,189,191,196,199,202,207,208,211,227,228,232,236,237,238,239,240,243,246,249,250,254,257,259,262,264,267,268,282,287,289,292,297,301,309,314,324,326,329,332,336,338,346,349,351,352,353,360,364,372,383,390,391,402,412,420,421,426,435,437,439,444,448,466,472,476,483,488,495,505,518,528,530,542,555,567,572,578,633,638,661,685,745}: X_INTRODUCED_32_ ::var_is_introduced :: is_defined_var;
var {27,29,34,35,36,47,53,55,57,61,63,68,70,74,77,80,83,84,91,95,96,105,108,110,112,120,121,123,134,140,142,145,150,153,154,157,165,169,175,182,184,189,191,196,199,202,207,208,211,227,228,232,236,237,238,239,240,243,246,249,250,254,257,259,262,264,267,268,282,287,289,292,297,301,309,314,324,326,329,332,336,338,346,349,351,352,353,360,364,372,383,390,391,402,412,420,421,426,435,437,439,444,448,466,472,476,483,488,495,505,518,528,530,542,555,567,572,578,633,638,661,685,745}: X_INTRODUCED_33_ ::var_is_introduced :: is_defined_var;
var {27,29,34,35,36,47,53,55,57,61,63,68,70,74,77,80,83,84,91,95,96,105,108,110,112,120,121,123,134,140,142,145,150,153,154,157,165,169,175,182,184,189,191,196,199,202,207,208,211,227,228,232,236,237,238,239,240,243,246,249,250,254,257,259,262,264,267,268,282,287,289,292,297,301,309,314,324,326,329,332,336,338,346,349,351,352,353,360,364,372,383,390,391,402,412,420,421,426,435,437,439,444,448,466,472,476,483,488,495,505,518,528,530,542,555,567,572,578,633,638,661,685,745}: X_INTRODUCED_34_ ::var_is_introduced :: is_defined_var;
array [1..17] of var int: Sequence:: output_array([1..17]) = [X_INTRODUCED_0_,X_INTRODUCED_1_,X_INTRODUCED_2_,X_INTRODUCED_3_,X_INTRODUCED_4_,X_INTRODUCED_5_,X_INTRODUCED_6_,X_INTRODUCED_7_,X_INTRODUCED_8_,X_INTRODUCED_9_,X_INTRODUCED_10_,X_INTRODUCED_11_,X_INTRODUCED_12_,X_INTRODUCED_13_,X_INTRODUCED_14_,X_INTRODUCED_15_,X_INTRODUCED_16_];
array [1..17] of var int: X_INTRODUCED_35_ ::var_is_introduced  = [X_INTRODUCED_17_,X_INTRODUCED_19_,X_INTRODUCED_20_,X_INTRODUCED_21_,X_INTRODUCED_22_,X_INTRODUCED_23_,X_INTRODUCED_24_,X_INTRODUCED_25_,X_INTRODUCED_26_,X_INTRODUCED_27_,X_INTRODUCED_28_,X_INTRODUCED_29_,X_INTRODUCED_30_,X_INTRODUCED_31_,X_INTRODUCED_32_,X_INTRODUCED_33_,X_INTRODUCED_34_];
constraint array_int_element2d_nonshifted_flat(X_INTRODUCED_0_,X_INTRODUCED_1_,X_INTRODUCED_18_,X_INTRODUCED_17_,17,1,1);
constraint array_int_element2d_nonshifted_flat(X_INTRODUCED_1_,X_INTRODUCED_2_,X_INTRODUCED_18_,X_INTRODUCED_19_,17,1,1);
constraint array_int_element2d_nonshifted_flat(X_INTRODUCED_2_,X_INTRODUCED_3_,X_INTRODUCED_18_,X_INTRODUCED_20_,17,1,1);
constraint array_int_element2d_nonshifted_flat(X_INTRODUCED_3_,X_INTRODUCED_4_,X_INTRODUCED_18_,X_INTRODUCED_21_,17,1,1);
constraint array_int_element2d_nonshifted_flat(X_INTRODUCED_4_,X_INTRODUCED_5_,X_INTRODUCED_18_,X_INTRODUCED_22_,17,1,1);
constraint array_int_element2d_nonshifted_flat(X_INTRODUCED_5_,X_INTRODUCED_6_,X_INTRODUCED_18_,X_INTRODUCED_23_,17,1,1);
constraint array_int_element2d_nonshifted_flat(X_INTRODUCED_6_,X_INTRODUCED_7_,X_INTRODUCED_18_,X_INTRODUCED_24_,17,1,1);
constraint array_int_element2d_nonshifted_flat(X_INTRODUCED_7_,X_INTRODUCED_8_,X_INTRODUCED_18_,X_INTRODUCED_25_,17,1,1);
constraint array_int_element2d_nonshifted_flat(X_INTRODUCED_8_,X_INTRODUCED_9_,X_INTRODUCED_18_,X_INTRODUCED_26_,17,1,1);
constraint array_int_element2d_nonshifted_flat(X_INTRODUCED_9_,X_INTRODUCED_10_,X_INTRODUCED_18_,X_INTRODUCED_27_,17,1,1);
constraint array_int_element2d_nonshifted_flat(X_INTRODUCED_10_,X_INTRODUCED_11_,X_INTRODUCED_18_,X_INTRODUCED_28_,17,1,1);
constraint array_int_element2d_nonshifted_flat(X_INTRODUCED_11_,X_INTRODUCED_12_,X_INTRODUCED_18_,X_INTRODUCED_29_,17,1,1);
constraint array_int_element2d_nonshifted_flat(X_INTRODUCED_12_,X_INTRODUCED_13_,X_INTRODUCED_18_,X_INTRODUCED_30_,17,1,1);
constraint array_int_element2d_nonshifted_flat(X_INTRODUCED_13_,X_INTRODUCED_14_,X_INTRODUCED_18_,X_INTRODUCED_31_,17,1,1);
constraint array_int_element2d_nonshifted_flat(X_INTRODUCED_14_,X_INTRODUCED_15_,X_INTRODUCED_18_,X_INTRODUCED_32_,17,1,1);
constraint array_int_element2d_nonshifted_flat(X_INTRODUCED_15_,X_INTRODUCED_16_,X_INTRODUCED_18_,X_INTRODUCED_33_,17,1,1);
constraint array_int_element2d_nonshifted_flat(X_INTRODUCED_16_,X_INTRODUCED_0_,X_INTRODUCED_18_,X_INTRODUCED_34_,17,1,1);
constraint fzn_all_different_int(Sequence);
constraint int_lin_eq([1,1,1,1,1,1,1,1,1,1,1,1,1,1,1,1,1,-1],[X_INTRODUCED_17_,X_INTRODUCED_19_,X_INTRODUCED_20_,X_INTRODUCED_21_,X_INTRODUCED_22_,X_INTRODUCED_23_,X_INTRODUCED_24_,X_INTRODUCED_25_,X_INTRODUCED_26_,X_INTRODUCED_27_,X_INTRODUCED_28_,X_INTRODUCED_29_,X_INTRODUCED_30_,X_INTRODUCED_31_,X_INTRODUCED_32_,X_INTRODUCED_33_,X_INTRODUCED_34_,objective],0):: defines_var(objective);
solve  minimize objective;
